n = 4;
pattern_length = 4;
num_patterns = 24;
num_classes = 24;
pattern = [|
1, 2, 3, 4
| 1, 2, 4, 3
| 1, 3, 2, 4
| 1, 3, 4, 2
| 1, 4, 2, 3
| 1, 4, 3, 2
| 2, 1, 3, 4
| 2, 1, 4, 3
| 2, 3, 1, 4
| 2, 3, 4, 1
| 2, 4, 1, 3
| 2, 4, 3, 1
| 3, 1, 2, 4
| 3, 1, 4, 2
| 3, 2, 1, 4
| 3, 2, 4, 1
| 3, 4, 1, 2
| 3, 4, 2, 1
| 4, 1, 2, 3
| 4, 1, 3, 2
| 4, 2, 1, 3
| 4, 2, 3, 1
| 4, 3, 1, 2
| 4, 3, 2, 1
|];
class = [{1}, {2}, {3}, {4}, {5}, {6}, {7}, {8}, {9}, {10}, {11}, {12}, {13}, {14}, {15}, {16}, {17}, {18}, {19}, {20}, {21}, {22}, {23}, {24}];
